c array.sh: path:     /data/qbf/qbf20/PCNF/biu.mv.xl_ao.bb-b003-p020-MIF04-c05.blif-biu.inv.prop.bb-bmc.conf05.01X-QBF.BB1-Zi.BB2-01X.BB3-Zi.with-IOC.unfold-006.qdimacs
c array.sh: name:     biu.mv.xl_ao.bb-b003-p020-MIF04-c05.blif-biu.inv.prop.bb-bmc.conf05.01X-QBF.BB1-Zi.BB2-01X.BB3-Zi.with-IOC.unfold-006
c array.sh: task:     20
c array.sh: host:     c3n10
c array.sh: uname:    Linux c3n10 4.15.0-135-generic #139-Ubuntu SMP Mon Jan 18 17:38:24 UTC 2021 x86_64 x86_64 x86_64 GNU/Linux
c array.sh: start:    Thu Feb 18 09:53:05 CET 2021
c array.sh: noturbo:  1
c array.sh: governor: 32 performance
c array.sh: tmp:      1%
c array.sh: unzipped: /tmp/local-unzipped-18838260-20-biu.mv.xl_ao.bb-b003-p020-MIF04-c05.blif-biu.inv.prop.bb-bmc.conf05.01X-QBF.BB1-Zi.BB2-01X.BB3-Zi.with-IOC.unfold-006.cnf
*** qbfcert: using tmp directory:
*** qbfcert:   /tmp
trace-size: 257580830
solving-res 20
proof-size: 25246550
cert-size: 111542
cert-header: aag 20894 18435 0 195 203
merged-header: p cnf 161962 361154
merged-size: 6433337
c ---- [ banner ] ------------------------------------------------------------
c
c KISSAT SAT Solver
c Copyright (c) 2019-2020 Armin Biere JKU Linz
c 
c Version 1.0.3 59813addcacc4d6fb880ebdd63685600475aa940
c gcc (Ubuntu 7.5.0-3ubuntu1~18.04) 7.5.0 -W -Wall -O3 -DNEMBEDDED -DNDEBUG -DNMETRICS -DNSTATISTICS
c Sun Feb 14 23:58:54 CET 2021 Linux cluster3 4.15.0-135-generic x86_64
c
c ---- [ parsing ] -----------------------------------------------------------
c
c opened and reading DIMACS file:
c 
c   /tmp/qbfcert_merged_cnf15516.cnf
c 
c parsed 'p cnf 161962 361154' header
c closing input after reading 6433337 bytes (6 MB)
c finished parsing after 0.11 seconds
c
c ---- [ solving ] -----------------------------------------------------------
c
c  seconds reductions redundant irredundant
c         MB   restarts    trail       variables
c          level  conflicts   glue          remaining
c
c *  0.11 22 0  0  0   1   0 0% 0 361152 21631 13%
c {  0.11 22 0  0  0   1   0 0% 0 361152 21631 13%
c }  0.11 22 0  0  0   1   0 0% 0 361152 21631 13%
c 0  0.11 22 0  0  0   1   0 0% 0 361152 21631 13%
c
c ---- [ result ] ------------------------------------------------------------
c
s UNSATISFIABLE
c
c ---- [ profiling ] ---------------------------------------------------------
c
c           0.11   99.75 %  parse
c           0.00    0.12 %  search
c           0.00    0.03 %  focused
c           0.00    0.00 %  simplify
c =============================================
c           0.11  100.00 %  total
c
c ---- [ statistics ] --------------------------------------------------------
c
c conflicts:                                1                8.96 per second
c decisions:                                0                0.00 per conflict
c propagations:                        117073          1048863    per second
c
c ---- [ resources ] ---------------------------------------------------------
c
c maximum-resident-set-size:         23277568 bytes         22 MB
c process-time:                             0s               0.11 seconds
c
c ---- [ shutting down ] -----------------------------------------------------
c
c exit 20
*** qbfcert: VALID
c array.sh: end:      Thu Feb 18 09:53:14 CET 2021
